nServices=10;
nDrivers=15;
nBuses=15;
maxBuses=12;
startingTime=[152 63 190 58 192 81 77 173 179 147];
durationTime=[26 16 16 25 24 20 10 19 16 16];
durationDist=[23 44 42 27 49 22 22 28 37 39];
passangers=[12 14 8 20 14 14 4 18 21 10];
capacity=[25 14 18 14 19 28 25 19 30 17 24 24 18 29 10];
costTime=[10 9 7 6 8 7 6 8 10 9 8 8 6 9 7];
costDist=[2 6 4 6 5 4 3 4 3 6 4 6 5 5 2];
maxTime=[23 39 49 42 34 45 29 59 32 37 26 34 44 21 43];
costBM=[6 8 6 6 6 6 6 8 5 6 5 6 6 7 5];
costEM=[10 11 11 12 10 9 8 12 11 9 11 9 11 9 11];
BM=[10 17 17 16 15 20 20 19 11 18 19 20 18 19 14];
